\ENCODING=ISO-8859-1
\Problem name: ilog.cplex

Minimize
 obj1: 95779 x1 + 102249 x2 + 96114 x3 + 90041 x4 + 91435 x5 + 106006 x6
       + 106736 x7 + 100809 x8 + 106405 x9 + 99021 x10 + 93901 x11 + 109797 x12
       + 101084 x13 + 92169 x14 + 91776 x15 + 99545 x16 + 92811 x17 + 99160 x18
       + 94378 x19 + 91951 x20 + 95600 x21 + 102249 x22 + 107556 x23
       + 102992 x24 + 95688 x25 + 97032 x26 + 98784 x27 + 107478 x28
       + 99695 x29 + 96540 x30 + 90990 x31 + 92672 x32 + 99982 x33 + 107256 x34
       + 94810 x35 + 104796 x36 + 95273 x37 + 92621 x38 + 97410 x39 + 98234 x40
       + 103699 x41 + 93231 x42 + 105429 x43 + 103680 x44 + 90096 x45
       + 97179 x46 + 94593 x47 + 98506 x48 + 99750 x49 + 108823 x50
       + 109232 x51 + 90343 x52 + 106733 x53 + 109786 x54 + 101146 x55
       + 93119 x56 + 106544 x57 + 102074 x58 + 99226 x59 + 103759 x60
       + 97296 x61 + 108047 x62 + 94727 x63 + 92034 x64 + 108303 x65
       + 95994 x66 + 103940 x67 + 92353 x68 + 97370 x69 + 108988 x70
       + 96416 x71 + 104470 x72 + 92789 x73 + 91223 x74 + 92164 x75 + 98870 x76
       + 109611 x77 + 95931 x78 + 97347 x79 + 99422 x80 + 100988 x81
       + 94545 x82 + 104354 x83 + 106997 x84 + 109944 x85 + 99907 x86
       + 108289 x87 + 108012 x88 + 103693 x89 + 100600 x90 + 92956 x91
       + 99439 x92 + 107144 x93 + 101319 x94 + 101711 x95 + 99983 x96
       + 107425 x97 + 107664 x98 + 101617 x99 + 90893 x100 + 97061 x101
       + 102807 x102 + 92891 x103 + 99249 x104 + 99838 x105 + 98199 x106
       + 109900 x107 + 101619 x108 + 100484 x109 + 100800 x110 + 104827 x111
       + 106593 x112 + 96922 x113 + 105315 x114 + 100592 x115 + 90990 x116
       + 92198 x117 + 91429 x118 + 105771 x119 + 96434 x120 + 100474 x121
       + 93828 x122 + 91529 x123 + 93226 x124 + 99639 x125 + 92083 x126
       + 105618 x127 + 94064 x128 + 100506 x129 + 108035 x130 + 100423 x131
       + 103221 x132 + 109322 x133 + 90210 x134 + 98022 x135 + 102112 x136
       + 100702 x137 + 96655 x138 + 93188 x139 + 108705 x140 + 91580 x141
       + 91280 x142 + 100901 x143 + 107096 x144 + 107866 x145 + 90348 x146
       + 101111 x147 + 95873 x148 + 108138 x149 + 109010 x150 + 98152 x151
       + 101117 x152 + 101248 x153 + 102347 x154 + 100039 x155 + 92272 x156
       + 102828 x157 + 100580 x158 + 96327 x159 + 102092 x160 + 99491 x161
       + 103864 x162 + 92319 x163 + 105493 x164 + 108879 x165 + 108540 x166
       + 102074 x167 + 96368 x168 + 98751 x169 + 103767 x170 + 93045 x171
       + 96296 x172 + 98960 x173 + 105122 x174 + 91102 x175 + 94557 x176
       + 106401 x177 + 100060 x178 + 96293 x179 + 94984 x180 + 91910 x181
       + 99813 x182 + 95789 x183 + 102074 x184 + 94858 x185 + 99264 x186
       + 109943 x187 + 92260 x188 + 109562 x189 + 104647 x190 + 96920 x191
       + 109687 x192 + 101586 x193 + 95045 x194 + 100294 x195 + 102230 x196
       + 97976 x197 + 92100 x198 + 94782 x199 + 108182 x200 + 102305 x201
       + 106600 x202 + 100269 x203 + 91022 x204 + 108913 x205 + 99582 x206
       + 100649 x207 + 99640 x208 + 103289 x209 + 97588 x210 + 105244 x211
       + 91740 x212 + 107257 x213 + 104264 x214 + 105044 x215 + 95967 x216
       + 90013 x217 + 108603 x218 + 91246 x219 + 91744 x220 + 99024 x221
       + 103945 x222 + 99331 x223 + 94914 x224 + 108438 x225 + 101182 x226
       + 98354 x227 + 91974 x228 + 96877 x229 + 104705 x230 + 102191 x231
       + 106011 x232 + 91344 x233 + 100207 x234 + 97134 x235 + 103430 x236
       + 109488 x237 + 99785 x238 + 98545 x239 + 102131 x240 + 98997 x241
       + 106064 x242 + 109152 x243 + 103504 x244 + 97391 x245 + 104814 x246
       + 97495 x247 + 109949 x248 + 103832 x249 + 92362 x250 + 94206 x251
       + 108937 x252 + 97070 x253 + 94317 x254 + 95186 x255 + 94600 x256
       + 92510 x257 + 99538 x258 + 107074 x259 + 95218 x260 + 90277 x261
       + 105456 x262 + 92883 x263 + 97556 x264 + 106127 x265 + 92140 x266
       + 98947 x267 + 95740 x268 + 101050 x269 + 94855 x270 + 98150 x271
       + 90202 x272 + 107571 x273 + 106586 x274 + 96921 x275 + 106776 x276
       + 98600 x277 + 94397 x278 + 101630 x279 + 91224 x280 + 98165 x281
       + 96443 x282 + 103780 x283 + 100251 x284 + 92395 x285 + 100093 x286
       + 102791 x287 + 96492 x288 + 103877 x289 + 105851 x290 + 100191 x291
       + 102027 x292 + 102803 x293 + 96629 x294 + 109673 x295 + 92625 x296
       + 104307 x297 + 97404 x298 + 93746 x299 + 103255 x300 + 104284 x301
       + 102647 x302 + 105823 x303 + 104327 x304 + 97385 x305 + 92668 x306
       + 96985 x307 + 92795 x308 + 90292 x309 + 99832 x310 + 93757 x311
       + 100216 x312 + 100412 x313 + 109793 x314 + 105502 x315 + 95868 x316
       + 108650 x317 + 101061 x318 + 91024 x319 + 104440 x320 + 96932 x321
       + 90223 x322 + 104322 x323 + 97116 x324 + 95525 x325 + 107923 x326
       + 103634 x327 + 95774 x328 + 99588 x329 + 91741 x330 + 96325 x331
       + 100596 x332 + 108302 x333 + 94292 x334 + 103913 x335 + 93865 x336
       + 94484 x337 + 102726 x338 + 93902 x339 + 90919 x340 + 107755 x341
       + 109237 x342 + 98061 x343 + 102941 x344 + 90145 x345 + 101312 x346
       + 100420 x347 + 105727 x348 + 99436 x349 + 95110 x350 + 92476 x351
       + 93536 x352 + 92601 x353 + 95725 x354 + 97980 x355 + 97796 x356
       + 99356 x357 + 94046 x358 + 105156 x359 + 106712 x360 + 93717 x361
       + 94021 x362 + 101063 x363 + 93530 x364 + 90199 x365 + 108559 x366
       + 96201 x367 + 94593 x368 + 101128 x369 + 109921 x370 + 106962 x371
       + 95030 x372 + 100936 x373 + 109715 x374 + 97640 x375 + 101132 x376
       + 101419 x377 + 92541 x378 + 99243 x379 + 101731 x380 + 93446 x381
       + 97265 x382 + 95784 x383 + 104554 x384 + 109892 x385 + 99973 x386
       + 94233 x387 + 95400 x388 + 98509 x389 + 95858 x390 + 94575 x391
       + 95516 x392 + 90309 x393 + 101199 x394 + 98622 x395 + 94275 x396
       + 101581 x397 + 101137 x398 + 104053 x399 + 106646 x400 + 95793 x401
       + 94146 x402 + 103628 x403 + 107893 x404 + 95410 x405 + 109887 x406
       + 108587 x407 + 91599 x408 + 93032 x409 + 103561 x410 + 99971 x411
       + 101315 x412 + 106314 x413 + 96924 x414 + 101906 x415 + 101023 x416
       + 91731 x417 + 103811 x418 + 106886 x419 + 95058 x420 + 104291 x421
       + 106281 x422 + 96667 x423 + 93353 x424 + 92071 x425 + 106281 x426
       + 109492 x427 + 105017 x428 + 90809 x429 + 101584 x430 + 99158 x431
       + 94760 x432 + 108084 x433 + 107479 x434 + 107882 x435 + 108578 x436
       + 109730 x437 + 99997 x438 + 101582 x439 + 93202 x440 + 106649 x441
       + 99392 x442 + 102554 x443 + 107362 x444 + 91909 x445 + 91336 x446
       + 100727 x447 + 94619 x448 + 105216 x449 + 99856 x450 + 98538 x451
       + 104509 x452 + 102930 x453 + 92909 x454 + 98411 x455 + 100970 x456
       + 103559 x457 + 104012 x458 + 96354 x459 + 94835 x460 + 101012 x461
       + 91517 x462 + 100395 x463 + 100650 x464 + 90882 x465 + 90837 x466
       + 108333 x467 + 107139 x468 + 98651 x469 + 104386 x470 + 95760 x471
       + 105360 x472 + 92942 x473 + 98962 x474 + 102313 x475 + 98928 x476
       + 91804 x477 + 100980 x478 + 101821 x479 + 106619 x480 + 99276 x481
       + 105454 x482 + 92636 x483 + 104655 x484 + 90133 x485 + 105492 x486
       + 92357 x487 + 104615 x488 + 100501 x489 + 109383 x490 + 102005 x491
       + 90332 x492 + 91221 x493 + 96059 x494 + 109436 x495 + 109243 x496
       + 104385 x497 + 102974 x498 + 109214 x499 + 106908 x500 + 99496 x501
       + 107088 x502 + 109263 x503 + 98753 x504 + 93622 x505 + 92880 x506
       + 96732 x507 + 102276 x508 + 106008 x509 + 97258 x510 + 102406 x511
       + 102566 x512 + 104214 x513 + 92383 x514 + 99874 x515 + 107943 x516
       + 91062 x517 + 109128 x518 + 108192 x519 + 97033 x520 + 99493 x521
       + 96272 x522 + 94915 x523 + 103816 x524 + 95889 x525 + 93525 x526
       + 100160 x527 + 92942 x528 + 91509 x529 + 90067 x530 + 101739 x531
       + 104071 x532 + 106400 x533 + 104560 x534 + 96416 x535 + 91020 x536
       + 100445 x537 + 97416 x538 + 103013 x539 + 109187 x540 + 93018 x541
       + 107801 x542 + 94500 x543 + 106803 x544 + 94220 x545 + 109148 x546
       + 99627 x547 + 94114 x548 + 100946 x549 + 104018 x550 + 105267 x551
       + 104609 x552 + 108398 x553 + 98425 x554 + 93967 x555 + 100501 x556
       + 102044 x557 + 96272 x558 + 96323 x559 + 101762 x560 + 106114 x561
       + 100718 x562 + 91304 x563 + 97349 x564 + 102066 x565 + 107117 x566
       + 95315 x567 + 102145 x568 + 94393 x569 + 108316 x570 + 102722 x571
       + 104255 x572 + 94453 x573 + 99701 x574 + 101626 x575 + 94171 x576
       + 106914 x577 + 103568 x578 + 100445 x579 + 109865 x580 + 97972 x581
       + 90244 x582 + 103215 x583 + 90003 x584 + 99663 x585 + 96823 x586
       + 104499 x587 + 101234 x588 + 100403 x589 + 93487 x590 + 98431 x591
       + 94931 x592 + 108301 x593 + 102062 x594 + 90632 x595 + 93725 x596
       + 90854 x597 + 91814 x598 + 106623 x599 + 221630 x600 + 385797 x601
       + 362387 x602 + 388901 x603 + 384985 x604 + 420827 x605 + 388455 x606
       + 378123 x607 + 402317 x608 + 389639 x609 + 402822 x610 + 405248 x611
       + 395061 x612 + 390224 x613 + 371708 x614 + 373820 x615 + 363167 x616
       + 408233 x617 + 388046 x618 + 438373 x619 + 381774 x620 + 413532 x621
       + 374347 x622 + 383137 x623 + 368759 x624 + 407784 x625 + 436668 x626
       + 365061 x627 + 367894 x628 + 402293 x629 + 369974 x630 + 394174 x631
       + 411371 x632 + 394830 x633 + 428974 x634 + 387531 x635 + 423025 x636
       + 391072 x637 + 439911 x638 + 383691 x639 + 368679 x640 + 380771 x641
       + 397521 x642 + 422846 x643 + 392585 x644 + 410708 x645 + 387803 x646
       + 403481 x647 + 399052 x648 + 375943 x649 + 360984 x650 + 399590 x651
       + 365889 x652 + 437820 x653 + 390443 x654 + 423216 x655 + 371409 x656
       + 391660 x657 + 392185 x658 + 405262 x659 + 758218 x660
Subject To
 c1:   x5 - x6 + x26 - x30 - x42 + x43 + x45 - x47  = 0
 c2:   x65 - x66 + x86 - x90 - x102 + x103 + x105 - x107  = 0
 c3:   x125 - x126 + x146 - x150 - x162 + x163 + x165 - x167  = 0
 c4:   x185 - x186 + x206 - x210 - x222 + x223 + x225 - x227  = 0
 c5:   x245 - x246 + x266 - x270 - x282 + x283 + x285 - x287  = 0
 c6:   x305 - x306 + x326 - x330 - x342 + x343 + x345 - x347  = 0
 c7:   x365 - x366 + x386 - x390 - x402 + x403 + x405 - x407  = -1
 c8:   x425 - x426 + x446 - x450 - x462 + x463 + x465 - x467  = 0
 c9:   x485 - x486 + x506 - x510 - x522 + x523 + x525 - x527  = 0
 c10:  x545 - x546 + x566 - x570 - x582 + x583 + x585 - x587  = 1
 c11:  x1 - x3 + x6 - x7 - x13 + x20 + x24 + x31 + x36 - x38 - x41 - x45 - x46
       - x55 + x60  = 0
 c12:  x61 - x63 + x66 - x67 - x73 + x80 + x84 + x91 + x96 - x98 - x101 - x105
       - x106 - x115 + x120  = 0
 c13:  x121 - x123 + x126 - x127 - x133 + x140 + x144 + x151 + x156 - x158
       - x161 - x165 - x166 - x175 + x180  = 0
 c14:  x181 - x183 + x186 - x187 - x193 + x200 + x204 + x211 + x216 - x218
       - x221 - x225 - x226 - x235 + x240  = 0
 c15:  x241 - x243 + x246 - x247 - x253 + x260 + x264 + x271 + x276 - x278
       - x281 - x285 - x286 - x295 + x300  = 0
 c16:  x301 - x303 + x306 - x307 - x313 + x320 + x324 + x331 + x336 - x338
       - x341 - x345 - x346 - x355 + x360  = 0
 c17:  x361 - x363 + x366 - x367 - x373 + x380 + x384 + x391 + x396 - x398
       - x401 - x405 - x406 - x415 + x420  = 0
 c18:  x421 - x423 + x426 - x427 - x433 + x440 + x444 + x451 + x456 - x458
       - x461 - x465 - x466 - x475 + x480  = 0
 c19:  x481 - x483 + x486 - x487 - x493 + x500 + x504 + x511 + x516 - x518
       - x521 - x525 - x526 - x535 + x540  = 0
 c20:  x541 - x543 + x546 - x547 - x553 + x560 + x564 + x571 + x576 - x578
       - x581 - x585 - x586 - x595 + x600  = 0
 c21:  - x11 + x15 + x18 + x19 + x21 + x28 + x33 + x51 - x53 + x55 - x56 - x58
        = -1
 c22:  - x71 + x75 + x78 + x79 + x81 + x88 + x93 + x111 - x113 + x115 - x116
       - x118  = 0
 c23:  - x131 + x135 + x138 + x139 + x141 + x148 + x153 + x171 - x173 + x175
       - x176 - x178  = 0
 c24:  - x191 + x195 + x198 + x199 + x201 + x208 + x213 + x231 - x233 + x235
       - x236 - x238  = 0
 c25:  - x251 + x255 + x258 + x259 + x261 + x268 + x273 + x291 - x293 + x295
       - x296 - x298  = 0
 c26:  - x311 + x315 + x318 + x319 + x321 + x328 + x333 + x351 - x353 + x355
       - x356 - x358  = 0
 c27:  - x371 + x375 + x378 + x379 + x381 + x388 + x393 + x411 - x413 + x415
       - x416 - x418  = 0
 c28:  - x431 + x435 + x438 + x439 + x441 + x448 + x453 + x471 - x473 + x475
       - x476 - x478  = 0
 c29:  - x491 + x495 + x498 + x499 + x501 + x508 + x513 + x531 - x533 + x535
       - x536 - x538  = 0
 c30:  - x551 + x555 + x558 + x559 + x561 + x568 + x573 + x591 - x593 + x595
       - x596 - x598  = 0
 c31:  x3 - x4 - x8 + x12 + x14 - x21 + x22 - x32 - x35 - x50 - x52 + x53  = 0
 c32:  x63 - x64 - x68 + x72 + x74 - x81 + x82 - x92 - x95 - x110 - x112 + x113
        = 0
 c33:  x123 - x124 - x128 + x132 + x134 - x141 + x142 - x152 - x155 - x170
       - x172 + x173  = 0
 c34:  x183 - x184 - x188 + x192 + x194 - x201 + x202 - x212 - x215 - x230
       - x232 + x233  = 0
 c35:  x243 - x244 - x248 + x252 + x254 - x261 + x262 - x272 - x275 - x290
       - x292 + x293  = 0
 c36:  x303 - x304 - x308 + x312 + x314 - x321 + x322 - x332 - x335 - x350
       - x352 + x353  = 0
 c37:  x363 - x364 - x368 + x372 + x374 - x381 + x382 - x392 - x395 - x410
       - x412 + x413  = 0
 c38:  x423 - x424 - x428 + x432 + x434 - x441 + x442 - x452 - x455 - x470
       - x472 + x473  = 0
 c39:  x483 - x484 - x488 + x492 + x494 - x501 + x502 - x512 - x515 - x530
       - x532 + x533  = 1
 c40:  x543 - x544 - x548 + x552 + x554 - x561 + x562 - x572 - x575 - x590
       - x592 + x593  = 0
 c41:  x7 + x16 - x17 - x27 - x31 + x35 + x48 - x51 + x54 + x56  = 1
 c42:  x67 + x76 - x77 - x87 - x91 + x95 + x108 - x111 + x114 + x116  = -1
 c43:  x127 + x136 - x137 - x147 - x151 + x155 + x168 - x171 + x174 + x176  = 0
 c44:  x187 + x196 - x197 - x207 - x211 + x215 + x228 - x231 + x234 + x236  = 0
 c45:  x247 + x256 - x257 - x267 - x271 + x275 + x288 - x291 + x294 + x296  = 0
 c46:  x307 + x316 - x317 - x327 - x331 + x335 + x348 - x351 + x354 + x356
        = -1
 c47:  x367 + x376 - x377 - x387 - x391 + x395 + x408 - x411 + x414 + x416  = 0
 c48:  x427 + x436 - x437 - x447 - x451 + x455 + x468 - x471 + x474 + x476  = 0
 c49:  x487 + x496 - x497 - x507 - x511 + x515 + x528 - x531 + x534 + x536  = 0
 c50:  x547 + x556 - x557 - x567 - x571 + x575 + x588 - x591 + x594 + x596
        = -1
 c51:  x4 + x10 - x18 - x23 - x24 + x34 + x39 - x40 + x41 - x48  = 0
 c52:  x64 + x70 - x78 - x83 - x84 + x94 + x99 - x100 + x101 - x108  = 0
 c53:  x124 + x130 - x138 - x143 - x144 + x154 + x159 - x160 + x161 - x168
        = -1
 c54:  x184 + x190 - x198 - x203 - x204 + x214 + x219 - x220 + x221 - x228  = 0
 c55:  x244 + x250 - x258 - x263 - x264 + x274 + x279 - x280 + x281 - x288  = 1
 c56:  x304 + x310 - x318 - x323 - x324 + x334 + x339 - x340 + x341 - x348  = 0
 c57:  x364 + x370 - x378 - x383 - x384 + x394 + x399 - x400 + x401 - x408  = 1
 c58:  x424 + x430 - x438 - x443 - x444 + x454 + x459 - x460 + x461 - x468  = 0
 c59:  x484 + x490 - x498 - x503 - x504 + x514 + x519 - x520 + x521 - x528
        = -1
 c60:  x544 + x550 - x558 - x563 - x564 + x574 + x579 - x580 + x581 - x588  = 0
 c61:  x2 + x8 - x9 - x14 - x19 + x27 - x29 + x38 - x43 + x47 + x57 - x59 - x60
        = 0
 c62:  x62 + x68 - x69 - x74 - x79 + x87 - x89 + x98 - x103 + x107 + x117
       - x119 - x120  = 0
 c63:  x122 + x128 - x129 - x134 - x139 + x147 - x149 + x158 - x163 + x167
       + x177 - x179 - x180  = 1
 c64:  x182 + x188 - x189 - x194 - x199 + x207 - x209 + x218 - x223 + x227
       + x237 - x239 - x240  = 0
 c65:  x242 + x248 - x249 - x254 - x259 + x267 - x269 + x278 - x283 + x287
       + x297 - x299 - x300  = 0
 c66:  x302 + x308 - x309 - x314 - x319 + x327 - x329 + x338 - x343 + x347
       + x357 - x359 - x360  = 0
 c67:  x362 + x368 - x369 - x374 - x379 + x387 - x389 + x398 - x403 + x407
       + x417 - x419 - x420  = 0
 c68:  x422 + x428 - x429 - x434 - x439 + x447 - x449 + x458 - x463 + x467
       + x477 - x479 - x480  = 0
 c69:  x482 + x488 - x489 - x494 - x499 + x507 - x509 + x518 - x523 + x527
       + x537 - x539 - x540  = 0
 c70:  x542 + x548 - x549 - x554 - x559 + x567 - x569 + x578 - x583 + x587
       + x597 - x599 - x600  = 0
 c71:  - x10 - x12 + x13 - x15 - x20 + x23 + x25 + x29 + x30 + x32 + x37 - x44
       - x49 - x54 - x57 + x58  = 0
 c72:  - x70 - x72 + x73 - x75 - x80 + x83 + x85 + x89 + x90 + x92 + x97 - x104
       - x109 - x114 - x117 + x118  = 0
 c73:  - x130 - x132 + x133 - x135 - x140 + x143 + x145 + x149 + x150 + x152
       + x157 - x164 - x169 - x174 - x177 + x178  = 0
 c74:  - x190 - x192 + x193 - x195 - x200 + x203 + x205 + x209 + x210 + x212
       + x217 - x224 - x229 - x234 - x237 + x238  = 0
 c75:  - x250 - x252 + x253 - x255 - x260 + x263 + x265 + x269 + x270 + x272
       + x277 - x284 - x289 - x294 - x297 + x298  = 0
 c76:  - x310 - x312 + x313 - x315 - x320 + x323 + x325 + x329 + x330 + x332
       + x337 - x344 - x349 - x354 - x357 + x358  = 0
 c77:  - x370 - x372 + x373 - x375 - x380 + x383 + x385 + x389 + x390 + x392
       + x397 - x404 - x409 - x414 - x417 + x418  = 0
 c78:  - x430 - x432 + x433 - x435 - x440 + x443 + x445 + x449 + x450 + x452
       + x457 - x464 - x469 - x474 - x477 + x478  = -1
 c79:  - x490 - x492 + x493 - x495 - x500 + x503 + x505 + x509 + x510 + x512
       + x517 - x524 - x529 - x534 - x537 + x538  = 0
 c80:  - x550 - x552 + x553 - x555 - x560 + x563 + x565 + x569 + x570 + x572
       + x577 - x584 - x589 - x594 - x597 + x598  = 0
 c81:  - x1 - x5 - x16 - x25 - x33 - x39 + x40 + x42 + x49 + x50 + x59  = 0
 c82:  - x61 - x65 - x76 - x85 - x93 - x99 + x100 + x102 + x109 + x110 + x119
        = 0
 c83:  - x121 - x125 - x136 - x145 - x153 - x159 + x160 + x162 + x169 + x170
       + x179  = 0
 c84:  - x181 - x185 - x196 - x205 - x213 - x219 + x220 + x222 + x229 + x230
       + x239  = -1
 c85:  - x241 - x245 - x256 - x265 - x273 - x279 + x280 + x282 + x289 + x290
       + x299  = 0
 c86:  - x301 - x305 - x316 - x325 - x333 - x339 + x340 + x342 + x349 + x350
       + x359  = 1
 c87:  - x361 - x365 - x376 - x385 - x393 - x399 + x400 + x402 + x409 + x410
       + x419  = 0
 c88:  - x421 - x425 - x436 - x445 - x453 - x459 + x460 + x462 + x469 + x470
       + x479  = 1
 c89:  - x481 - x485 - x496 - x505 - x513 - x519 + x520 + x522 + x529 + x530
       + x539  = 0
 c90:  - x541 - x545 - x556 - x565 - x573 - x579 + x580 + x582 + x589 + x590
       + x599  = 0
 c91:  - x2 + x9 + x11 + x17 - x22 - x26 - x28 - x34 - x36 - x37 + x44 + x46
       + x52  = 0
 c92:  - x62 + x69 + x71 + x77 - x82 - x86 - x88 - x94 - x96 - x97 + x104
       + x106 + x112  = 1
 c93:  - x122 + x129 + x131 + x137 - x142 - x146 - x148 - x154 - x156 - x157
       + x164 + x166 + x172  = 0
 c94:  - x182 + x189 + x191 + x197 - x202 - x206 - x208 - x214 - x216 - x217
       + x224 + x226 + x232  = 1
 c95:  - x242 + x249 + x251 + x257 - x262 - x266 - x268 - x274 - x276 - x277
       + x284 + x286 + x292  = -1
 c96:  - x302 + x309 + x311 + x317 - x322 - x326 - x328 - x334 - x336 - x337
       + x344 + x346 + x352  = 0
 c97:  - x362 + x369 + x371 + x377 - x382 - x386 - x388 - x394 - x396 - x397
       + x404 + x406 + x412  = 0
 c98:  - x422 + x429 + x431 + x437 - x442 - x446 - x448 - x454 - x456 - x457
       + x464 + x466 + x472  = 0
 c99:  - x482 + x489 + x491 + x497 - x502 - x506 - x508 - x514 - x516 - x517
       + x524 + x526 + x532  = 0
 c100: - x542 + x549 + x551 + x557 - x562 - x566 - x568 - x574 - x576 - x577
       + x584 + x586 + x592  = 0
 c101: 4 x1 + 4 x61 + 4 x121 + 4 x181 + 4 x241 + 4 x301 + 4 x361 + 4 x421
       + 4 x481 + 4 x541 - 5 x601 <= 0
 c102: 4 x2 + 4 x62 + 4 x122 + 4 x182 + 4 x242 + 4 x302 + 4 x362 + 4 x422
       + 4 x482 + 4 x542 - 5 x602 <= 0
 c103: 4 x3 + 4 x63 + 4 x123 + 4 x183 + 4 x243 + 4 x303 + 4 x363 + 4 x423
       + 4 x483 + 4 x543 - 5 x603 <= 0
 c104: 4 x4 + 4 x64 + 4 x124 + 4 x184 + 4 x244 + 4 x304 + 4 x364 + 4 x424
       + 4 x484 + 4 x544 - 5 x604 <= 0
 c105: 4 x5 + 4 x65 + 4 x125 + 4 x185 + 4 x245 + 4 x305 + 4 x365 + 4 x425
       + 4 x485 + 4 x545 - 5 x605 <= 0
 c106: 4 x6 + 4 x66 + 4 x126 + 4 x186 + 4 x246 + 4 x306 + 4 x366 + 4 x426
       + 4 x486 + 4 x546 - 5 x606 <= 0
 c107: 4 x7 + 4 x67 + 4 x127 + 4 x187 + 4 x247 + 4 x307 + 4 x367 + 4 x427
       + 4 x487 + 4 x547 - 5 x607 <= 0
 c108: 4 x8 + 4 x68 + 4 x128 + 4 x188 + 4 x248 + 4 x308 + 4 x368 + 4 x428
       + 4 x488 + 4 x548 - 5 x608 <= 0
 c109: 4 x9 + 4 x69 + 4 x129 + 4 x189 + 4 x249 + 4 x309 + 4 x369 + 4 x429
       + 4 x489 + 4 x549 - 5 x609 <= 0
 c110: 4 x10 + 4 x70 + 4 x130 + 4 x190 + 4 x250 + 4 x310 + 4 x370 + 4 x430
       + 4 x490 + 4 x550 - 5 x610 <= 0
 c111: 4 x11 + 4 x71 + 4 x131 + 4 x191 + 4 x251 + 4 x311 + 4 x371 + 4 x431
       + 4 x491 + 4 x551 - 5 x611 <= 0
 c112: 4 x12 + 4 x72 + 4 x132 + 4 x192 + 4 x252 + 4 x312 + 4 x372 + 4 x432
       + 4 x492 + 4 x552 - 5 x612 <= 0
 c113: 4 x13 + 4 x73 + 4 x133 + 4 x193 + 4 x253 + 4 x313 + 4 x373 + 4 x433
       + 4 x493 + 4 x553 - 5 x613 <= 0
 c114: 4 x14 + 4 x74 + 4 x134 + 4 x194 + 4 x254 + 4 x314 + 4 x374 + 4 x434
       + 4 x494 + 4 x554 - 5 x614 <= 0
 c115: 4 x15 + 4 x75 + 4 x135 + 4 x195 + 4 x255 + 4 x315 + 4 x375 + 4 x435
       + 4 x495 + 4 x555 - 5 x615 <= 0
 c116: 4 x16 + 4 x76 + 4 x136 + 4 x196 + 4 x256 + 4 x316 + 4 x376 + 4 x436
       + 4 x496 + 4 x556 - 5 x616 <= 0
 c117: 4 x17 + 4 x77 + 4 x137 + 4 x197 + 4 x257 + 4 x317 + 4 x377 + 4 x437
       + 4 x497 + 4 x557 - 5 x617 <= 0
 c118: 4 x18 + 4 x78 + 4 x138 + 4 x198 + 4 x258 + 4 x318 + 4 x378 + 4 x438
       + 4 x498 + 4 x558 - 5 x618 <= 0
 c119: 4 x19 + 4 x79 + 4 x139 + 4 x199 + 4 x259 + 4 x319 + 4 x379 + 4 x439
       + 4 x499 + 4 x559 - 5 x619 <= 0
 c120: 4 x20 + 4 x80 + 4 x140 + 4 x200 + 4 x260 + 4 x320 + 4 x380 + 4 x440
       + 4 x500 + 4 x560 - 5 x620 <= 0
 c121: 4 x21 + 4 x81 + 4 x141 + 4 x201 + 4 x261 + 4 x321 + 4 x381 + 4 x441
       + 4 x501 + 4 x561 - 5 x621 <= 0
 c122: 4 x22 + 4 x82 + 4 x142 + 4 x202 + 4 x262 + 4 x322 + 4 x382 + 4 x442
       + 4 x502 + 4 x562 - 5 x622 <= 0
 c123: 4 x23 + 4 x83 + 4 x143 + 4 x203 + 4 x263 + 4 x323 + 4 x383 + 4 x443
       + 4 x503 + 4 x563 - 5 x623 <= 0
 c124: 4 x24 + 4 x84 + 4 x144 + 4 x204 + 4 x264 + 4 x324 + 4 x384 + 4 x444
       + 4 x504 + 4 x564 - 5 x624 <= 0
 c125: 4 x25 + 4 x85 + 4 x145 + 4 x205 + 4 x265 + 4 x325 + 4 x385 + 4 x445
       + 4 x505 + 4 x565 - 5 x625 <= 0
 c126: 4 x26 + 4 x86 + 4 x146 + 4 x206 + 4 x266 + 4 x326 + 4 x386 + 4 x446
       + 4 x506 + 4 x566 - 5 x626 <= 0
 c127: 4 x27 + 4 x87 + 4 x147 + 4 x207 + 4 x267 + 4 x327 + 4 x387 + 4 x447
       + 4 x507 + 4 x567 - 5 x627 <= 0
 c128: 4 x28 + 4 x88 + 4 x148 + 4 x208 + 4 x268 + 4 x328 + 4 x388 + 4 x448
       + 4 x508 + 4 x568 - 5 x628 <= 0
 c129: 4 x29 + 4 x89 + 4 x149 + 4 x209 + 4 x269 + 4 x329 + 4 x389 + 4 x449
       + 4 x509 + 4 x569 - 5 x629 <= 0
 c130: 4 x30 + 4 x90 + 4 x150 + 4 x210 + 4 x270 + 4 x330 + 4 x390 + 4 x450
       + 4 x510 + 4 x570 - 5 x630 <= 0
 c131: 4 x31 + 4 x91 + 4 x151 + 4 x211 + 4 x271 + 4 x331 + 4 x391 + 4 x451
       + 4 x511 + 4 x571 - 5 x631 <= 0
 c132: 4 x32 + 4 x92 + 4 x152 + 4 x212 + 4 x272 + 4 x332 + 4 x392 + 4 x452
       + 4 x512 + 4 x572 - 5 x632 <= 0
 c133: 4 x33 + 4 x93 + 4 x153 + 4 x213 + 4 x273 + 4 x333 + 4 x393 + 4 x453
       + 4 x513 + 4 x573 - 5 x633 <= 0
 c134: 4 x34 + 4 x94 + 4 x154 + 4 x214 + 4 x274 + 4 x334 + 4 x394 + 4 x454
       + 4 x514 + 4 x574 - 5 x634 <= 0
 c135: 4 x35 + 4 x95 + 4 x155 + 4 x215 + 4 x275 + 4 x335 + 4 x395 + 4 x455
       + 4 x515 + 4 x575 - 5 x635 <= 0
 c136: 4 x36 + 4 x96 + 4 x156 + 4 x216 + 4 x276 + 4 x336 + 4 x396 + 4 x456
       + 4 x516 + 4 x576 - 5 x636 <= 0
 c137: 4 x37 + 4 x97 + 4 x157 + 4 x217 + 4 x277 + 4 x337 + 4 x397 + 4 x457
       + 4 x517 + 4 x577 - 5 x637 <= 0
 c138: 4 x38 + 4 x98 + 4 x158 + 4 x218 + 4 x278 + 4 x338 + 4 x398 + 4 x458
       + 4 x518 + 4 x578 - 5 x638 <= 0
 c139: 4 x39 + 4 x99 + 4 x159 + 4 x219 + 4 x279 + 4 x339 + 4 x399 + 4 x459
       + 4 x519 + 4 x579 - 5 x639 <= 0
 c140: 4 x40 + 4 x100 + 4 x160 + 4 x220 + 4 x280 + 4 x340 + 4 x400 + 4 x460
       + 4 x520 + 4 x580 - 5 x640 <= 0
 c141: 4 x41 + 4 x101 + 4 x161 + 4 x221 + 4 x281 + 4 x341 + 4 x401 + 4 x461
       + 4 x521 + 4 x581 - 5 x641 <= 0
 c142: 4 x42 + 4 x102 + 4 x162 + 4 x222 + 4 x282 + 4 x342 + 4 x402 + 4 x462
       + 4 x522 + 4 x582 - 5 x642 <= 0
 c143: 4 x43 + 4 x103 + 4 x163 + 4 x223 + 4 x283 + 4 x343 + 4 x403 + 4 x463
       + 4 x523 + 4 x583 - 5 x643 <= 0
 c144: 4 x44 + 4 x104 + 4 x164 + 4 x224 + 4 x284 + 4 x344 + 4 x404 + 4 x464
       + 4 x524 + 4 x584 - 5 x644 <= 0
 c145: 4 x45 + 4 x105 + 4 x165 + 4 x225 + 4 x285 + 4 x345 + 4 x405 + 4 x465
       + 4 x525 + 4 x585 - 5 x645 <= 0
 c146: 4 x46 + 4 x106 + 4 x166 + 4 x226 + 4 x286 + 4 x346 + 4 x406 + 4 x466
       + 4 x526 + 4 x586 - 5 x646 <= 0
 c147: 4 x47 + 4 x107 + 4 x167 + 4 x227 + 4 x287 + 4 x347 + 4 x407 + 4 x467
       + 4 x527 + 4 x587 - 5 x647 <= 0
 c148: 4 x48 + 4 x108 + 4 x168 + 4 x228 + 4 x288 + 4 x348 + 4 x408 + 4 x468
       + 4 x528 + 4 x588 - 5 x648 <= 0
 c149: 4 x49 + 4 x109 + 4 x169 + 4 x229 + 4 x289 + 4 x349 + 4 x409 + 4 x469
       + 4 x529 + 4 x589 - 5 x649 <= 0
 c150: 4 x50 + 4 x110 + 4 x170 + 4 x230 + 4 x290 + 4 x350 + 4 x410 + 4 x470
       + 4 x530 + 4 x590 - 5 x650 <= 0
 c151: 4 x51 + 4 x111 + 4 x171 + 4 x231 + 4 x291 + 4 x351 + 4 x411 + 4 x471
       + 4 x531 + 4 x591 - 5 x651 <= 0
 c152: 4 x52 + 4 x112 + 4 x172 + 4 x232 + 4 x292 + 4 x352 + 4 x412 + 4 x472
       + 4 x532 + 4 x592 - 5 x652 <= 0
 c153: 4 x53 + 4 x113 + 4 x173 + 4 x233 + 4 x293 + 4 x353 + 4 x413 + 4 x473
       + 4 x533 + 4 x593 - 5 x653 <= 0
 c154: 4 x54 + 4 x114 + 4 x174 + 4 x234 + 4 x294 + 4 x354 + 4 x414 + 4 x474
       + 4 x534 + 4 x594 - 5 x654 <= 0
 c155: 4 x55 + 4 x115 + 4 x175 + 4 x235 + 4 x295 + 4 x355 + 4 x415 + 4 x475
       + 4 x535 + 4 x595 - 5 x655 <= 0
 c156: 4 x56 + 4 x116 + 4 x176 + 4 x236 + 4 x296 + 4 x356 + 4 x416 + 4 x476
       + 4 x536 + 4 x596 - 5 x656 <= 0
 c157: 4 x57 + 4 x117 + 4 x177 + 4 x237 + 4 x297 + 4 x357 + 4 x417 + 4 x477
       + 4 x537 + 4 x597 - 5 x657 <= 0
 c158: 4 x58 + 4 x118 + 4 x178 + 4 x238 + 4 x298 + 4 x358 + 4 x418 + 4 x478
       + 4 x538 + 4 x598 - 5 x658 <= 0
 c159: 4 x59 + 4 x119 + 4 x179 + 4 x239 + 4 x299 + 4 x359 + 4 x419 + 4 x479
       + 4 x539 + 4 x599 - 5 x659 <= 0
 c160: 4 x60 + 4 x120 + 4 x180 + 4 x240 + 4 x300 + 4 x360 + 4 x420 + 4 x480
       + 4 x540 + 4 x600 - 5 x660 <= 0
Bounds
 0 <= x1 <= 1
 0 <= x2 <= 1
 0 <= x3 <= 1
 0 <= x4 <= 1
 0 <= x5 <= 1
 0 <= x6 <= 1
 0 <= x7 <= 1
 0 <= x8 <= 1
 0 <= x9 <= 1
 0 <= x10 <= 1
 0 <= x11 <= 1
 0 <= x12 <= 1
 0 <= x13 <= 1
 0 <= x14 <= 1
 0 <= x15 <= 1
 0 <= x16 <= 1
 0 <= x17 <= 1
 0 <= x18 <= 1
 0 <= x19 <= 1
 0 <= x20 <= 1
 0 <= x21 <= 1
 0 <= x22 <= 1
 0 <= x23 <= 1
 0 <= x24 <= 1
 0 <= x25 <= 1
 0 <= x26 <= 1
 0 <= x27 <= 1
 0 <= x28 <= 1
 0 <= x29 <= 1
 0 <= x30 <= 1
 0 <= x31 <= 1
 0 <= x32 <= 1
 0 <= x33 <= 1
 0 <= x34 <= 1
 0 <= x35 <= 1
 0 <= x36 <= 1
 0 <= x37 <= 1
 0 <= x38 <= 1
 0 <= x39 <= 1
 0 <= x40 <= 1
 0 <= x41 <= 1
 0 <= x42 <= 1
 0 <= x43 <= 1
 0 <= x44 <= 1
 0 <= x45 <= 1
 0 <= x46 <= 1
 0 <= x47 <= 1
 0 <= x48 <= 1
 0 <= x49 <= 1
 0 <= x50 <= 1
 0 <= x51 <= 1
 0 <= x52 <= 1
 0 <= x53 <= 1
 0 <= x54 <= 1
 0 <= x55 <= 1
 0 <= x56 <= 1
 0 <= x57 <= 1
 0 <= x58 <= 1
 0 <= x59 <= 1
 0 <= x60 <= 1
 0 <= x61 <= 1
 0 <= x62 <= 1
 0 <= x63 <= 1
 0 <= x64 <= 1
 0 <= x65 <= 1
 0 <= x66 <= 1
 0 <= x67 <= 1
 0 <= x68 <= 1
 0 <= x69 <= 1
 0 <= x70 <= 1
 0 <= x71 <= 1
 0 <= x72 <= 1
 0 <= x73 <= 1
 0 <= x74 <= 1
 0 <= x75 <= 1
 0 <= x76 <= 1
 0 <= x77 <= 1
 0 <= x78 <= 1
 0 <= x79 <= 1
 0 <= x80 <= 1
 0 <= x81 <= 1
 0 <= x82 <= 1
 0 <= x83 <= 1
 0 <= x84 <= 1
 0 <= x85 <= 1
 0 <= x86 <= 1
 0 <= x87 <= 1
 0 <= x88 <= 1
 0 <= x89 <= 1
 0 <= x90 <= 1
 0 <= x91 <= 1
 0 <= x92 <= 1
 0 <= x93 <= 1
 0 <= x94 <= 1
 0 <= x95 <= 1
 0 <= x96 <= 1
 0 <= x97 <= 1
 0 <= x98 <= 1
 0 <= x99 <= 1
 0 <= x100 <= 1
 0 <= x101 <= 1
 0 <= x102 <= 1
 0 <= x103 <= 1
 0 <= x104 <= 1
 0 <= x105 <= 1
 0 <= x106 <= 1
 0 <= x107 <= 1
 0 <= x108 <= 1
 0 <= x109 <= 1
 0 <= x110 <= 1
 0 <= x111 <= 1
 0 <= x112 <= 1
 0 <= x113 <= 1
 0 <= x114 <= 1
 0 <= x115 <= 1
 0 <= x116 <= 1
 0 <= x117 <= 1
 0 <= x118 <= 1
 0 <= x119 <= 1
 0 <= x120 <= 1
 0 <= x121 <= 1
 0 <= x122 <= 1
 0 <= x123 <= 1
 0 <= x124 <= 1
 0 <= x125 <= 1
 0 <= x126 <= 1
 0 <= x127 <= 1
 0 <= x128 <= 1
 0 <= x129 <= 1
 0 <= x130 <= 1
 0 <= x131 <= 1
 0 <= x132 <= 1
 0 <= x133 <= 1
 0 <= x134 <= 1
 0 <= x135 <= 1
 0 <= x136 <= 1
 0 <= x137 <= 1
 0 <= x138 <= 1
 0 <= x139 <= 1
 0 <= x140 <= 1
 0 <= x141 <= 1
 0 <= x142 <= 1
 0 <= x143 <= 1
 0 <= x144 <= 1
 0 <= x145 <= 1
 0 <= x146 <= 1
 0 <= x147 <= 1
 0 <= x148 <= 1
 0 <= x149 <= 1
 0 <= x150 <= 1
 0 <= x151 <= 1
 0 <= x152 <= 1
 0 <= x153 <= 1
 0 <= x154 <= 1
 0 <= x155 <= 1
 0 <= x156 <= 1
 0 <= x157 <= 1
 0 <= x158 <= 1
 0 <= x159 <= 1
 0 <= x160 <= 1
 0 <= x161 <= 1
 0 <= x162 <= 1
 0 <= x163 <= 1
 0 <= x164 <= 1
 0 <= x165 <= 1
 0 <= x166 <= 1
 0 <= x167 <= 1
 0 <= x168 <= 1
 0 <= x169 <= 1
 0 <= x170 <= 1
 0 <= x171 <= 1
 0 <= x172 <= 1
 0 <= x173 <= 1
 0 <= x174 <= 1
 0 <= x175 <= 1
 0 <= x176 <= 1
 0 <= x177 <= 1
 0 <= x178 <= 1
 0 <= x179 <= 1
 0 <= x180 <= 1
 0 <= x181 <= 1
 0 <= x182 <= 1
 0 <= x183 <= 1
 0 <= x184 <= 1
 0 <= x185 <= 1
 0 <= x186 <= 1
 0 <= x187 <= 1
 0 <= x188 <= 1
 0 <= x189 <= 1
 0 <= x190 <= 1
 0 <= x191 <= 1
 0 <= x192 <= 1
 0 <= x193 <= 1
 0 <= x194 <= 1
 0 <= x195 <= 1
 0 <= x196 <= 1
 0 <= x197 <= 1
 0 <= x198 <= 1
 0 <= x199 <= 1
 0 <= x200 <= 1
 0 <= x201 <= 1
 0 <= x202 <= 1
 0 <= x203 <= 1
 0 <= x204 <= 1
 0 <= x205 <= 1
 0 <= x206 <= 1
 0 <= x207 <= 1
 0 <= x208 <= 1
 0 <= x209 <= 1
 0 <= x210 <= 1
 0 <= x211 <= 1
 0 <= x212 <= 1
 0 <= x213 <= 1
 0 <= x214 <= 1
 0 <= x215 <= 1
 0 <= x216 <= 1
 0 <= x217 <= 1
 0 <= x218 <= 1
 0 <= x219 <= 1
 0 <= x220 <= 1
 0 <= x221 <= 1
 0 <= x222 <= 1
 0 <= x223 <= 1
 0 <= x224 <= 1
 0 <= x225 <= 1
 0 <= x226 <= 1
 0 <= x227 <= 1
 0 <= x228 <= 1
 0 <= x229 <= 1
 0 <= x230 <= 1
 0 <= x231 <= 1
 0 <= x232 <= 1
 0 <= x233 <= 1
 0 <= x234 <= 1
 0 <= x235 <= 1
 0 <= x236 <= 1
 0 <= x237 <= 1
 0 <= x238 <= 1
 0 <= x239 <= 1
 0 <= x240 <= 1
 0 <= x241 <= 1
 0 <= x242 <= 1
 0 <= x243 <= 1
 0 <= x244 <= 1
 0 <= x245 <= 1
 0 <= x246 <= 1
 0 <= x247 <= 1
 0 <= x248 <= 1
 0 <= x249 <= 1
 0 <= x250 <= 1
 0 <= x251 <= 1
 0 <= x252 <= 1
 0 <= x253 <= 1
 0 <= x254 <= 1
 0 <= x255 <= 1
 0 <= x256 <= 1
 0 <= x257 <= 1
 0 <= x258 <= 1
 0 <= x259 <= 1
 0 <= x260 <= 1
 0 <= x261 <= 1
 0 <= x262 <= 1
 0 <= x263 <= 1
 0 <= x264 <= 1
 0 <= x265 <= 1
 0 <= x266 <= 1
 0 <= x267 <= 1
 0 <= x268 <= 1
 0 <= x269 <= 1
 0 <= x270 <= 1
 0 <= x271 <= 1
 0 <= x272 <= 1
 0 <= x273 <= 1
 0 <= x274 <= 1
 0 <= x275 <= 1
 0 <= x276 <= 1
 0 <= x277 <= 1
 0 <= x278 <= 1
 0 <= x279 <= 1
 0 <= x280 <= 1
 0 <= x281 <= 1
 0 <= x282 <= 1
 0 <= x283 <= 1
 0 <= x284 <= 1
 0 <= x285 <= 1
 0 <= x286 <= 1
 0 <= x287 <= 1
 0 <= x288 <= 1
 0 <= x289 <= 1
 0 <= x290 <= 1
 0 <= x291 <= 1
 0 <= x292 <= 1
 0 <= x293 <= 1
 0 <= x294 <= 1
 0 <= x295 <= 1
 0 <= x296 <= 1
 0 <= x297 <= 1
 0 <= x298 <= 1
 0 <= x299 <= 1
 0 <= x300 <= 1
 0 <= x301 <= 1
 0 <= x302 <= 1
 0 <= x303 <= 1
 0 <= x304 <= 1
 0 <= x305 <= 1
 0 <= x306 <= 1
 0 <= x307 <= 1
 0 <= x308 <= 1
 0 <= x309 <= 1
 0 <= x310 <= 1
 0 <= x311 <= 1
 0 <= x312 <= 1
 0 <= x313 <= 1
 0 <= x314 <= 1
 0 <= x315 <= 1
 0 <= x316 <= 1
 0 <= x317 <= 1
 0 <= x318 <= 1
 0 <= x319 <= 1
 0 <= x320 <= 1
 0 <= x321 <= 1
 0 <= x322 <= 1
 0 <= x323 <= 1
 0 <= x324 <= 1
 0 <= x325 <= 1
 0 <= x326 <= 1
 0 <= x327 <= 1
 0 <= x328 <= 1
 0 <= x329 <= 1
 0 <= x330 <= 1
 0 <= x331 <= 1
 0 <= x332 <= 1
 0 <= x333 <= 1
 0 <= x334 <= 1
 0 <= x335 <= 1
 0 <= x336 <= 1
 0 <= x337 <= 1
 0 <= x338 <= 1
 0 <= x339 <= 1
 0 <= x340 <= 1
 0 <= x341 <= 1
 0 <= x342 <= 1
 0 <= x343 <= 1
 0 <= x344 <= 1
 0 <= x345 <= 1
 0 <= x346 <= 1
 0 <= x347 <= 1
 0 <= x348 <= 1
 0 <= x349 <= 1
 0 <= x350 <= 1
 0 <= x351 <= 1
 0 <= x352 <= 1
 0 <= x353 <= 1
 0 <= x354 <= 1
 0 <= x355 <= 1
 0 <= x356 <= 1
 0 <= x357 <= 1
 0 <= x358 <= 1
 0 <= x359 <= 1
 0 <= x360 <= 1
 0 <= x361 <= 1
 0 <= x362 <= 1
 0 <= x363 <= 1
 0 <= x364 <= 1
 0 <= x365 <= 1
 0 <= x366 <= 1
 0 <= x367 <= 1
 0 <= x368 <= 1
 0 <= x369 <= 1
 0 <= x370 <= 1
 0 <= x371 <= 1
 0 <= x372 <= 1
 0 <= x373 <= 1
 0 <= x374 <= 1
 0 <= x375 <= 1
 0 <= x376 <= 1
 0 <= x377 <= 1
 0 <= x378 <= 1
 0 <= x379 <= 1
 0 <= x380 <= 1
 0 <= x381 <= 1
 0 <= x382 <= 1
 0 <= x383 <= 1
 0 <= x384 <= 1
 0 <= x385 <= 1
 0 <= x386 <= 1
 0 <= x387 <= 1
 0 <= x388 <= 1
 0 <= x389 <= 1
 0 <= x390 <= 1
 0 <= x391 <= 1
 0 <= x392 <= 1
 0 <= x393 <= 1
 0 <= x394 <= 1
 0 <= x395 <= 1
 0 <= x396 <= 1
 0 <= x397 <= 1
 0 <= x398 <= 1
 0 <= x399 <= 1
 0 <= x400 <= 1
 0 <= x401 <= 1
 0 <= x402 <= 1
 0 <= x403 <= 1
 0 <= x404 <= 1
 0 <= x405 <= 1
 0 <= x406 <= 1
 0 <= x407 <= 1
 0 <= x408 <= 1
 0 <= x409 <= 1
 0 <= x410 <= 1
 0 <= x411 <= 1
 0 <= x412 <= 1
 0 <= x413 <= 1
 0 <= x414 <= 1
 0 <= x415 <= 1
 0 <= x416 <= 1
 0 <= x417 <= 1
 0 <= x418 <= 1
 0 <= x419 <= 1
 0 <= x420 <= 1
 0 <= x421 <= 1
 0 <= x422 <= 1
 0 <= x423 <= 1
 0 <= x424 <= 1
 0 <= x425 <= 1
 0 <= x426 <= 1
 0 <= x427 <= 1
 0 <= x428 <= 1
 0 <= x429 <= 1
 0 <= x430 <= 1
 0 <= x431 <= 1
 0 <= x432 <= 1
 0 <= x433 <= 1
 0 <= x434 <= 1
 0 <= x435 <= 1
 0 <= x436 <= 1
 0 <= x437 <= 1
 0 <= x438 <= 1
 0 <= x439 <= 1
 0 <= x440 <= 1
 0 <= x441 <= 1
 0 <= x442 <= 1
 0 <= x443 <= 1
 0 <= x444 <= 1
 0 <= x445 <= 1
 0 <= x446 <= 1
 0 <= x447 <= 1
 0 <= x448 <= 1
 0 <= x449 <= 1
 0 <= x450 <= 1
 0 <= x451 <= 1
 0 <= x452 <= 1
 0 <= x453 <= 1
 0 <= x454 <= 1
 0 <= x455 <= 1
 0 <= x456 <= 1
 0 <= x457 <= 1
 0 <= x458 <= 1
 0 <= x459 <= 1
 0 <= x460 <= 1
 0 <= x461 <= 1
 0 <= x462 <= 1
 0 <= x463 <= 1
 0 <= x464 <= 1
 0 <= x465 <= 1
 0 <= x466 <= 1
 0 <= x467 <= 1
 0 <= x468 <= 1
 0 <= x469 <= 1
 0 <= x470 <= 1
 0 <= x471 <= 1
 0 <= x472 <= 1
 0 <= x473 <= 1
 0 <= x474 <= 1
 0 <= x475 <= 1
 0 <= x476 <= 1
 0 <= x477 <= 1
 0 <= x478 <= 1
 0 <= x479 <= 1
 0 <= x480 <= 1
 0 <= x481 <= 1
 0 <= x482 <= 1
 0 <= x483 <= 1
 0 <= x484 <= 1
 0 <= x485 <= 1
 0 <= x486 <= 1
 0 <= x487 <= 1
 0 <= x488 <= 1
 0 <= x489 <= 1
 0 <= x490 <= 1
 0 <= x491 <= 1
 0 <= x492 <= 1
 0 <= x493 <= 1
 0 <= x494 <= 1
 0 <= x495 <= 1
 0 <= x496 <= 1
 0 <= x497 <= 1
 0 <= x498 <= 1
 0 <= x499 <= 1
 0 <= x500 <= 1
 0 <= x501 <= 1
 0 <= x502 <= 1
 0 <= x503 <= 1
 0 <= x504 <= 1
 0 <= x505 <= 1
 0 <= x506 <= 1
 0 <= x507 <= 1
 0 <= x508 <= 1
 0 <= x509 <= 1
 0 <= x510 <= 1
 0 <= x511 <= 1
 0 <= x512 <= 1
 0 <= x513 <= 1
 0 <= x514 <= 1
 0 <= x515 <= 1
 0 <= x516 <= 1
 0 <= x517 <= 1
 0 <= x518 <= 1
 0 <= x519 <= 1
 0 <= x520 <= 1
 0 <= x521 <= 1
 0 <= x522 <= 1
 0 <= x523 <= 1
 0 <= x524 <= 1
 0 <= x525 <= 1
 0 <= x526 <= 1
 0 <= x527 <= 1
 0 <= x528 <= 1
 0 <= x529 <= 1
 0 <= x530 <= 1
 0 <= x531 <= 1
 0 <= x532 <= 1
 0 <= x533 <= 1
 0 <= x534 <= 1
 0 <= x535 <= 1
 0 <= x536 <= 1
 0 <= x537 <= 1
 0 <= x538 <= 1
 0 <= x539 <= 1
 0 <= x540 <= 1
 0 <= x541 <= 1
 0 <= x542 <= 1
 0 <= x543 <= 1
 0 <= x544 <= 1
 0 <= x545 <= 1
 0 <= x546 <= 1
 0 <= x547 <= 1
 0 <= x548 <= 1
 0 <= x549 <= 1
 0 <= x550 <= 1
 0 <= x551 <= 1
 0 <= x552 <= 1
 0 <= x553 <= 1
 0 <= x554 <= 1
 0 <= x555 <= 1
 0 <= x556 <= 1
 0 <= x557 <= 1
 0 <= x558 <= 1
 0 <= x559 <= 1
 0 <= x560 <= 1
 0 <= x561 <= 1
 0 <= x562 <= 1
 0 <= x563 <= 1
 0 <= x564 <= 1
 0 <= x565 <= 1
 0 <= x566 <= 1
 0 <= x567 <= 1
 0 <= x568 <= 1
 0 <= x569 <= 1
 0 <= x570 <= 1
 0 <= x571 <= 1
 0 <= x572 <= 1
 0 <= x573 <= 1
 0 <= x574 <= 1
 0 <= x575 <= 1
 0 <= x576 <= 1
 0 <= x577 <= 1
 0 <= x578 <= 1
 0 <= x579 <= 1
 0 <= x580 <= 1
 0 <= x581 <= 1
 0 <= x582 <= 1
 0 <= x583 <= 1
 0 <= x584 <= 1
 0 <= x585 <= 1
 0 <= x586 <= 1
 0 <= x587 <= 1
 0 <= x588 <= 1
 0 <= x589 <= 1
 0 <= x590 <= 1
 0 <= x591 <= 1
 0 <= x592 <= 1
 0 <= x593 <= 1
 0 <= x594 <= 1
 0 <= x595 <= 1
 0 <= x596 <= 1
 0 <= x597 <= 1
 0 <= x598 <= 1
 0 <= x599 <= 1
 0 <= x600 <= 1
 0 <= x601 <= 1
 0 <= x602 <= 1
 0 <= x603 <= 1
 0 <= x604 <= 1
 0 <= x605 <= 1
 0 <= x606 <= 1
 0 <= x607 <= 1
 0 <= x608 <= 1
 0 <= x609 <= 1
 0 <= x610 <= 1
 0 <= x611 <= 1
 0 <= x612 <= 1
 0 <= x613 <= 1
 0 <= x614 <= 1
 0 <= x615 <= 1
 0 <= x616 <= 1
 0 <= x617 <= 1
 0 <= x618 <= 1
 0 <= x619 <= 1
 0 <= x620 <= 1
 0 <= x621 <= 1
 0 <= x622 <= 1
 0 <= x623 <= 1
 0 <= x624 <= 1
 0 <= x625 <= 1
 0 <= x626 <= 1
 0 <= x627 <= 1
 0 <= x628 <= 1
 0 <= x629 <= 1
 0 <= x630 <= 1
 0 <= x631 <= 1
 0 <= x632 <= 1
 0 <= x633 <= 1
 0 <= x634 <= 1
 0 <= x635 <= 1
 0 <= x636 <= 1
 0 <= x637 <= 1
 0 <= x638 <= 1
 0 <= x639 <= 1
 0 <= x640 <= 1
 0 <= x641 <= 1
 0 <= x642 <= 1
 0 <= x643 <= 1
 0 <= x644 <= 1
 0 <= x645 <= 1
 0 <= x646 <= 1
 0 <= x647 <= 1
 0 <= x648 <= 1
 0 <= x649 <= 1
 0 <= x650 <= 1
 0 <= x651 <= 1
 0 <= x652 <= 1
 0 <= x653 <= 1
 0 <= x654 <= 1
 0 <= x655 <= 1
 0 <= x656 <= 1
 0 <= x657 <= 1
 0 <= x658 <= 1
 0 <= x659 <= 1
 0 <= x660 <= 1
Binaries
 x601  x602  x603  x604  x605  x606  x607  x608  x609  x610  x611  x612  x613 
 x614  x615  x616  x617  x618  x619  x620  x621  x622  x623  x624  x625  x626 
 x627  x628  x629  x630  x631  x632  x633  x634  x635  x636  x637  x638  x639 
 x640  x641  x642  x643  x644  x645  x646  x647  x648  x649  x650  x651  x652 
 x653  x654  x655  x656  x657  x658  x659  x660 
End
